100
32
2
5
12
15
7
25
10
8
3
17
9
8
1
5
17
16
4
2
3
2
1
1
1
2
2
1
7
1
2
1
1
2
1
17
1
4
17
3
1
1
19
1
3
4
5
17
2
2
4
3
1
1
4
1
17
20
1
2
3
3
3
1
2
1
17
17
2
2
2
1
2
3
2
3
2
2
3
1
4
1
10
1
1
17
1
1
1
1
2
3
1
2
2
1
2
2
2
2
1
1